VACCINE = Vaccine(1..2);
m = 24;
age = [ADULT, SENIOR, CHILD, ADULT, ANCIENT, SENIOR, ANCIENT, ADULT, ADULT, CHILD, CHILD, BABY, ANCIENT, ADULT, ADULT, ADULT, BABY, BABY, AGED, YOUTH, SENIOR, CHILD, BABY, CHILD];
gender = [OTHER, FEMALE, MALE, FEMALE, FEMALE, FEMALE, MALE, FEMALE, MALE, FEMALE, FEMALE, MALE, MALE, OTHER, OTHER, FEMALE, OTHER, FEMALE, OTHER, OTHER, OTHER, OTHER, FEMALE, OTHER];
health = [GOOD, COMPROMISED, COMPROMISED, POOR, GOOD, POOR, POOR, POOR, POOR, POOR, POOR, GOOD, POOR, POOR, COMPROMISED, GOOD, GOOD, POOR, COMPROMISED, COMPROMISED, GOOD, COMPROMISED, GOOD, COMPROMISED];
exposure = [LOW, LOW, HIGH, EXTREME, LOW, LOW, EXTREME, HIGH, HIGH, EXTREME, EXTREME, LOW, AVERAGE, EXTREME, AVERAGE, AVERAGE, HIGH, AVERAGE, HIGH, LOW, AVERAGE, LOW, EXTREME, EXTREME];
size = [15, 14, 11, 10, 15, 15, 11, 12, 12, 10, 10, 11, 15, 15, 10, 15, 13, 10, 14, 12, 15, 12, 12, 15];
minsize = 10;
age_group_min = [0, 1, 0, 1, 1, 0, 0];
age_group_max = [24, 17, 20, 23, 21, 16, 13];
max_people_diff = 139;
max_share_vaccines = 2;
health_information = {3, 4, 15};
exposure_information = {6, 16, 20, 22};